instances/knapsack/knapsack_general/knapsack_60_10_1.kp
42
60
15700

625 62.0 725 102.88
610 61.0 710 77.56
410 41.0 510 57.45
542 54.0 642 92.93
884 88.0 984 106.06
460 46.0 560 93.63
705 70.0 805 105.2
692 69.0 792 129.92
510 51.0 610 81.75
829 83.0 929 128.98
983 98.0 1083 203.82
529 53.0 629 91.68
551 55.0 651 124.53
253 25.0 353 59.16
481 48.0 581 101.56
515 52.0 615 106.59
215 22.0 315 49.17
754 75.0 854 112.2
776 78.0 876 147.25
762 76.0 862 89.33
365 36.0 465 58.0
155 16.0 255 46.02
545 54.0 645 118.97
963 96.0 1063 108.59
998 100.0 1098 195.71
439 44.0 539 78.14
834 83.0 934 113.21
602 60.0 702 134.66
982 98.0 1082 170.56
211 21.0 311 38.81
362 36.0 462 88.6
356 36.0 456 48.58
647 65.0 747 127.47
98 10.0 198 34.19
886 89.0 986 171.35
802 80.0 902 132.86
643 64.0 743 96.6
86 9.0 186 22.69
708 71.0 808 142.19
81 8.0 181 27.16
55 6.0 155 15.92
405 40.0 505 85.56
109 11.0 209 36.13
663 66.0 763 136.63
270 27.0 370 54.6
48 5.0 148 24.89
836 84.0 936 150.35
976 98.0 1076 192.8
102 10.0 202 25.63
765 76.0 865 105.39
78 8.0 178 32.76
782 78.0 882 111.21
724 72.0 824 84.03
508 51.0 608 102.16
701 70.0 801 142.93
543 54.0 643 119.92
39 4.0 139 27.57
582 58.0 682 73.32
45 4.0 145 28.2
320 32.0 420 53.92

42
[962, 980, 978, 999, 990, 1000, 974, 982, 954, 998]

[[6, 2, 2, 13, 9, 7, 13, 13, 4, 3, 6, 15, 10, 9, 10, 0, 5, 5, 7, 14, 12, 10, 6, 9, 11, 9, 1, 6, 9, 1, 6, 0, 9, 2, 5, 6, 3, 12, 8, 0, 12, 1, 11, 9, 9, 13, 8, 1, 11, 8, 5, 7, 3, 2, 7, 5, 13, 2, 13, 2] [9, 2, 11, 0, 4, 14, 4, 3, 0, 0, 14, 15, 4, 15, 0, 4, 11, 10, 11, 9, 15, 8, 14, 7, 3, 13, 2, 0, 11, 7, 4, 10, 5, 1, 15, 4, 14, 15, 12, 2, 0, 13, 7, 1, 14, 8, 15, 3, 7, 2, 3, 15, 15, 13, 9, 4, 9, 15, 4, 9] [15, 15, 2, 12, 15, 12, 8, 12, 9, 9, 2, 3, 12, 2, 14, 14, 1, 15, 6, 11, 4, 7, 9, 12, 8, 8, 1, 6, 14, 14, 6, 15, 7, 14, 2, 6, 13, 0, 1, 5, 1, 4, 12, 10, 11, 3, 2, 10, 10, 6, 6, 9, 12, 2, 2, 7, 3, 13, 9, 9] [7, 3, 5, 7, 10, 1, 9, 3, 0, 9, 6, 11, 12, 2, 15, 4, 10, 2, 6, 11, 12, 4, 1, 10, 4, 2, 9, 16, 2, 14, 6, 4, 5, 3, 11, 5, 9, 8, 6, 0, 12, 10, 8, 4, 9, 7, 11, 11, 6, 6, 0, 14, 0, 5, 8, 0, 8, 7, 5, 6] [5, 14, 3, 14, 9, 2, 0, 6, 14, 4, 9, 6, 0, 6, 15, 2, 3, 13, 7, 15, 5, 10, 7, 3, 12, 2, 14, 10, 2, 6, 3, 0, 0, 1, 12, 9, 12, 5, 13, 1, 3, 14, 9, 10, 11, 8, 7, 5, 0, 10, 8, 4, 11, 5, 7, 3, 4, 16, 14, 14] [12, 5, 15, 10, 14, 16, 9, 2, 6, 3, 7, 8, 10, 10, 2, 1, 9, 4, 3, 6, 13, 10, 15, 13, 1, 11, 15, 0, 14, 14, 12, 11, 5, 0, 15, 9, 6, 6, 8, 3, 10, 4, 3, 13, 15, 10, 16, 6, 8, 6, 8, 7, 5, 10, 15, 0, 4, 7, 8, 16] [12, 15, 4, 0, 10, 13, 15, 10, 16, 15, 4, 0, 9, 7, 4, 0, 13, 3, 7, 3, 12, 3, 15, 0, 8, 1, 3, 4, 0, 5, 12, 12, 2, 8, 15, 12, 14, 9, 4, 14, 6, 10, 11, 5, 4, 6, 12, 13, 10, 1, 15, 9, 15, 4, 5, 15, 4, 0, 5, 13] [13, 7, 12, 15, 0, 15, 9, 0, 5, 16, 4, 11, 0, 5, 5, 1, 14, 10, 5, 5, 6, 3, 8, 3, 2, 2, 8, 9, 12, 14, 13, 9, 4, 13, 6, 9, 12, 9, 2, 14, 0, 3, 9, 11, 12, 1, 6, 3, 0, 11, 11, 11, 13, 8, 2, 1, 9, 13, 15, 9] [9, 4, 14, 8, 7, 10, 12, 13, 6, 9, 12, 10, 3, 0, 2, 2, 2, 13, 15, 9, 0, 4, 12, 6, 8, 3, 5, 14, 0, 2, 9, 7, 12, 9, 13, 7, 11, 9, 5, 0, 10, 6, 0, 15, 5, 15, 10, 4, 1, 2, 8, 11, 1, 14, 6, 11, 9, 0, 11, 11] [14, 7, 4, 4, 10, 11, 7, 12, 9, 7, 3, 11, 2, 6, 12, 7, 8, 10, 3, 14, 5, 10, 7, 6, 6, 12, 14, 1, 8, 8, 1, 8, 0, 0, 10, 0, 10, 3, 14, 9, 11, 13, 9, 14, 4, 10, 12, 11, 14, 0, 15, 15, 2, 9, 1, 15, 12, 13, 14, 2]]

[[851, 156, 276, 928, 646, 390, 915, 958, 192, 807, 577, 707, 937, 183, 275, 453, 553, 236, 962, 68, 351, 229, 243, 541, 952, 657, 324, 492, 248, 69, 324, 702, 417, 308, 672, 796, 789, 912, 614, 491, 177, 71, 623, 17, 360, 594, 742, 538, 248, 279, 480, 928, 782, 718, 495, 561, 513, 8, 223, 370] [730, 704, 830, 537, 492, 850, 877, 318, 398, 44, 212, 459, 335, 940, 814, 198, 327, 681, 660, 749, 718, 521, 773, 557, 374, 453, 94, 36, 255, 409, 591, 86, 503, 48, 242, 204, 555, 165, 792, 764, 215, 980, 666, 233, 238, 62, 505, 218, 63, 123, 386, 281, 692, 922, 714, 922, 472, 580, 929, 723] [872, 302, 348, 743, 394, 512, 115, 796, 36, 962, 978, 65, 173, 18, 396, 420, 789, 127, 146, 483, 188, 647, 219, 195, 356, 963, 396, 682, 373, 71, 829, 436, 533, 422, 232, 674, 321, 379, 30, 586, 437, 250, 328, 23, 748, 196, 463, 128, 333, 457, 288, 935, 514, 616, 784, 448, 734, 378, 391, 961] [768, 382, 220, 591, 778, 704, 251, 484, 828, 882, 530, 753, 469, 562, 108, 444, 37, 759, 882, 19, 684, 39, 795, 619, 564, 11, 812, 938, 589, 615, 525, 884, 533, 574, 120, 106, 449, 131, 822, 178, 469, 82, 928, 431, 132, 356, 999, 112, 277, 49, 920, 159, 914, 664, 432, 432, 718, 546, 415, 89] [747, 773, 399, 750, 397, 71, 830, 315, 159, 817, 29, 264, 824, 337, 871, 795, 384, 758, 453, 242, 415, 550, 590, 690, 431, 690, 319, 737, 240, 198, 264, 875, 256, 293, 619, 633, 676, 850, 769, 161, 760, 393, 651, 798, 687, 803, 794, 703, 952, 528, 27, 990, 221, 927, 715, 319, 665, 41, 626, 576] [411, 341, 127, 846, 949, 95, 190, 259, 335, 913, 797, 696, 928, 137, 503, 683, 816, 526, 789, 938, 991, 310, 598, 58, 207, 626, 271, 385, 376, 862, 416, 515, 376, 925, 363, 777, 188, 442, 625, 625, 248, 553, 171, 246, 375, 387, 554, 151, 432, 1000, 315, 38, 829, 39, 27, 103, 857, 289, 530, 80] [458, 879, 875, 675, 365, 361, 138, 217, 639, 322, 232, 598, 416, 114, 66, 32, 384, 327, 201, 263, 974, 416, 418, 504, 903, 692, 187, 535, 191, 448, 811, 137, 392, 927, 583, 719, 260, 411, 61, 238, 728, 170, 742, 60, 751, 245, 365, 557, 655, 298, 247, 227, 213, 25, 878, 900, 880, 3, 134, 597] [93, 142, 574, 850, 96, 976, 965, 256, 426, 129, 963, 389, 835, 969, 629, 119, 467, 542, 276, 294, 113, 391, 677, 863, 874, 851, 982, 6, 490, 975, 766, 136, 603, 718, 162, 590, 95, 306, 384, 741, 691, 105, 41, 843, 602, 780, 648, 740, 610, 801, 618, 834, 792, 496, 193, 483, 323, 210, 105, 244] [743, 912, 888, 828, 714, 810, 71, 954, 172, 331, 61, 183, 381, 299, 551, 121, 285, 816, 110, 280, 83, 905, 375, 649, 364, 373, 400, 496, 324, 921, 232, 674, 901, 64, 868, 272, 129, 4, 578, 255, 885, 315, 43, 237, 836, 750, 562, 366, 820, 443, 124, 52, 698, 882, 331, 29, 853, 220, 371, 294] [227, 5, 583, 78, 605, 783, 702, 195, 239, 129, 597, 256, 32, 633, 831, 595, 200, 926, 5, 522, 847, 998, 86, 338, 143, 850, 679, 121, 624, 654, 96, 419, 344, 157, 35, 161, 148, 658, 913, 305, 664, 385, 771, 550, 135, 835, 658, 463, 648, 728, 651, 406, 453, 711, 443, 439, 289, 553, 338, 480]]
