instances/knapsack/knapsack_general/knapsack_60_10_1.lp
\ Model knapsack_60_10_1
\ LP format - for model browsing. Use MPS format to capture full model detail.
\ Signature: 0x81e1620c76c1849a
Minimize
  - 725 y[0] - 710 y[1] - 510 y[2] - 642 y[3] - 984 y[4] - 560 y[5]
   - 805 y[6] - 792 y[7] - 610 y[8] - 929 y[9] - 1083 y[10] - 629 y[11]
   - 651 y[12] - 353 y[13] - 581 y[14] - 615 y[15] - 315 y[16] - 854 y[17]
   - 876 y[18] - 862 y[19] - 465 y[20] - 255 y[21] - 645 y[22] - 1063 y[23]
   - 1098 y[24] - 539 y[25] - 934 y[26] - 702 y[27] - 1082 y[28]
   - 311 y[29] - 462 y[30] - 456 y[31] - 747 y[32] - 198 y[33] - 986 y[34]
   - 902 y[35] - 743 y[36] - 186 y[37] - 808 y[38] - 181 y[39] - 155 y[40]
   - 505 y[41] - 209 y[42] - 763 y[43] - 370 y[44] - 148 y[45] - 936 y[46]
   - 1076 y[47] - 202 y[48] - 865 y[49] - 178 y[50] - 882 y[51] - 824 y[52]
   - 608 y[53] - 801 y[54] - 643 y[55] - 139 y[56] - 682 y[57] - 145 y[58]
   - 420 y[59]
Subject To
 primal_upper: 625 y[0] + 610 y[1] + 410 y[2] + 542 y[3] + 884 y[4]
   + 460 y[5] + 705 y[6] + 692 y[7] + 510 y[8] + 829 y[9] + 983 y[10]
   + 529 y[11] + 551 y[12] + 253 y[13] + 481 y[14] + 515 y[15] + 215 y[16]
   + 754 y[17] + 776 y[18] + 762 y[19] + 365 y[20] + 155 y[21] + 545 y[22]
   + 963 y[23] + 998 y[24] + 439 y[25] + 834 y[26] + 602 y[27] + 982 y[28]
   + 211 y[29] + 362 y[30] + 356 y[31] + 647 y[32] + 98 y[33] + 886 y[34]
   + 802 y[35] + 643 y[36] + 86 y[37] + 708 y[38] + 81 y[39] + 55 y[40]
   + 405 y[41] + 109 y[42] + 663 y[43] + 270 y[44] + 48 y[45] + 836 y[46]
   + 976 y[47] + 102 y[48] + 765 y[49] + 78 y[50] + 782 y[51] + 724 y[52]
   + 508 y[53] + 701 y[54] + 543 y[55] + 39 y[56] + 582 y[57] + 45 y[58]
   + 320 y[59] + 62 z[0] + 61 z[1] + 41 z[2] + 54 z[3] + 88 z[4] + 46 z[5]
   + 70 z[6] + 69 z[7] + 51 z[8] + 83 z[9] + 98 z[10] + 53 z[11] + 55 z[12]
   + 25 z[13] + 48 z[14] + 52 z[15] + 22 z[16] + 75 z[17] + 78 z[18]
   + 76 z[19] + 36 z[20] + 16 z[21] + 54 z[22] + 96 z[23] + 100 z[24]
   + 44 z[25] + 83 z[26] + 60 z[27] + 98 z[28] + 21 z[29] + 36 z[30]
   + 36 z[31] + 65 z[32] + 10 z[33] + 89 z[34] + 80 z[35] + 64 z[36]
   + 9 z[37] + 71 z[38] + 8 z[39] + 6 z[40] + 40 z[41] + 11 z[42]
   + 66 z[43] + 27 z[44] + 5 z[45] + 84 z[46] + 98 z[47] + 10 z[48]
   + 76 z[49] + 8 z[50] + 78 z[51] + 72 z[52] + 51 z[53] + 70 z[54]
   + 54 z[55] + 4 z[56] + 58 z[57] + 4 z[58] + 32 z[59] <= 15700
 primal_lower0: - 6 y[0] - 2 y[1] - 2 y[2] - 13 y[3] - 9 y[4] - 7 y[5]
   - 13 y[6] - 13 y[7] - 4 y[8] - 3 y[9] - 6 y[10] - 15 y[11] - 10 y[12]
   - 9 y[13] - 10 y[14] - 5 y[16] - 5 y[17] - 7 y[18] - 14 y[19] - 12 y[20]
   - 10 y[21] - 6 y[22] - 9 y[23] - 11 y[24] - 9 y[25] - y[26] - 6 y[27]
   - 9 y[28] - y[29] - 6 y[30] - 9 y[32] - 2 y[33] - 5 y[34] - 6 y[35]
   - 3 y[36] - 12 y[37] - 8 y[38] - 12 y[40] - y[41] - 11 y[42] - 9 y[43]
   - 9 y[44] - 13 y[45] - 8 y[46] - y[47] - 11 y[48] - 8 y[49] - 5 y[50]
   - 7 y[51] - 3 y[52] - 2 y[53] - 7 y[54] - 5 y[55] - 13 y[56] - 2 y[57]
   - 13 y[58] - 2 y[59] + 851 u[0] + 156 u[1] + 276 u[2] + 928 u[3]
   + 646 u[4] + 390 u[5] + 915 u[6] + 958 u[7] + 192 u[8] + 807 u[9]
   + 577 u[10] + 707 u[11] + 937 u[12] + 183 u[13] + 275 u[14] + 453 u[15]
   + 553 u[16] + 236 u[17] + 962 u[18] + 68 u[19] + 351 u[20] + 229 u[21]
   + 243 u[22] + 541 u[23] + 952 u[24] + 657 u[25] + 324 u[26] + 492 u[27]
   + 248 u[28] + 69 u[29] + 324 u[30] + 702 u[31] + 417 u[32] + 308 u[33]
   + 672 u[34] + 796 u[35] + 789 u[36] + 912 u[37] + 614 u[38] + 491 u[39]
   + 177 u[40] + 71 u[41] + 623 u[42] + 17 u[43] + 360 u[44] + 594 u[45]
   + 742 u[46] + 538 u[47] + 248 u[48] + 279 u[49] + 480 u[50] + 928 u[51]
   + 782 u[52] + 718 u[53] + 495 u[54] + 561 u[55] + 513 u[56] + 8 u[57]
   + 223 u[58] + 370 u[59] <= 962
 primal_lower1: - 9 y[0] - 2 y[1] - 11 y[2] - 4 y[4] - 14 y[5] - 4 y[6]
   - 3 y[7] - 14 y[10] - 15 y[11] - 4 y[12] - 15 y[13] - 4 y[15] - 11 y[16]
   - 10 y[17] - 11 y[18] - 9 y[19] - 15 y[20] - 8 y[21] - 14 y[22]
   - 7 y[23] - 3 y[24] - 13 y[25] - 2 y[26] - 11 y[28] - 7 y[29] - 4 y[30]
   - 10 y[31] - 5 y[32] - y[33] - 15 y[34] - 4 y[35] - 14 y[36] - 15 y[37]
   - 12 y[38] - 2 y[39] - 13 y[41] - 7 y[42] - y[43] - 14 y[44] - 8 y[45]
   - 15 y[46] - 3 y[47] - 7 y[48] - 2 y[49] - 3 y[50] - 15 y[51] - 15 y[52]
   - 13 y[53] - 9 y[54] - 4 y[55] - 9 y[56] - 15 y[57] - 4 y[58] - 9 y[59]
   + 730 u[0] + 704 u[1] + 830 u[2] + 537 u[3] + 492 u[4] + 850 u[5]
   + 877 u[6] + 318 u[7] + 398 u[8] + 44 u[9] + 212 u[10] + 459 u[11]
   + 335 u[12] + 940 u[13] + 814 u[14] + 198 u[15] + 327 u[16] + 681 u[17]
   + 660 u[18] + 749 u[19] + 718 u[20] + 521 u[21] + 773 u[22] + 557 u[23]
   + 374 u[24] + 453 u[25] + 94 u[26] + 36 u[27] + 255 u[28] + 409 u[29]
   + 591 u[30] + 86 u[31] + 503 u[32] + 48 u[33] + 242 u[34] + 204 u[35]
   + 555 u[36] + 165 u[37] + 792 u[38] + 764 u[39] + 215 u[40] + 980 u[41]
   + 666 u[42] + 233 u[43] + 238 u[44] + 62 u[45] + 505 u[46] + 218 u[47]
   + 63 u[48] + 123 u[49] + 386 u[50] + 281 u[51] + 692 u[52] + 922 u[53]
   + 714 u[54] + 922 u[55] + 472 u[56] + 580 u[57] + 929 u[58] + 723 u[59]
   <= 980
 primal_lower2: - 15 y[0] - 15 y[1] - 2 y[2] - 12 y[3] - 15 y[4] - 12 y[5]
   - 8 y[6] - 12 y[7] - 9 y[8] - 9 y[9] - 2 y[10] - 3 y[11] - 12 y[12]
   - 2 y[13] - 14 y[14] - 14 y[15] - y[16] - 15 y[17] - 6 y[18] - 11 y[19]
   - 4 y[20] - 7 y[21] - 9 y[22] - 12 y[23] - 8 y[24] - 8 y[25] - y[26]
   - 6 y[27] - 14 y[28] - 14 y[29] - 6 y[30] - 15 y[31] - 7 y[32]
   - 14 y[33] - 2 y[34] - 6 y[35] - 13 y[36] - y[38] - 5 y[39] - y[40]
   - 4 y[41] - 12 y[42] - 10 y[43] - 11 y[44] - 3 y[45] - 2 y[46]
   - 10 y[47] - 10 y[48] - 6 y[49] - 6 y[50] - 9 y[51] - 12 y[52] - 2 y[53]
   - 2 y[54] - 7 y[55] - 3 y[56] - 13 y[57] - 9 y[58] - 9 y[59] + 872 u[0]
   + 302 u[1] + 348 u[2] + 743 u[3] + 394 u[4] + 512 u[5] + 115 u[6]
   + 796 u[7] + 36 u[8] + 962 u[9] + 978 u[10] + 65 u[11] + 173 u[12]
   + 18 u[13] + 396 u[14] + 420 u[15] + 789 u[16] + 127 u[17] + 146 u[18]
   + 483 u[19] + 188 u[20] + 647 u[21] + 219 u[22] + 195 u[23] + 356 u[24]
   + 963 u[25] + 396 u[26] + 682 u[27] + 373 u[28] + 71 u[29] + 829 u[30]
   + 436 u[31] + 533 u[32] + 422 u[33] + 232 u[34] + 674 u[35] + 321 u[36]
   + 379 u[37] + 30 u[38] + 586 u[39] + 437 u[40] + 250 u[41] + 328 u[42]
   + 23 u[43] + 748 u[44] + 196 u[45] + 463 u[46] + 128 u[47] + 333 u[48]
   + 457 u[49] + 288 u[50] + 935 u[51] + 514 u[52] + 616 u[53] + 784 u[54]
   + 448 u[55] + 734 u[56] + 378 u[57] + 391 u[58] + 961 u[59] <= 978
 primal_lower3: - 7 y[0] - 3 y[1] - 5 y[2] - 7 y[3] - 10 y[4] - y[5]
   - 9 y[6] - 3 y[7] - 9 y[9] - 6 y[10] - 11 y[11] - 12 y[12] - 2 y[13]
   - 15 y[14] - 4 y[15] - 10 y[16] - 2 y[17] - 6 y[18] - 11 y[19]
   - 12 y[20] - 4 y[21] - y[22] - 10 y[23] - 4 y[24] - 2 y[25] - 9 y[26]
   - 16 y[27] - 2 y[28] - 14 y[29] - 6 y[30] - 4 y[31] - 5 y[32] - 3 y[33]
   - 11 y[34] - 5 y[35] - 9 y[36] - 8 y[37] - 6 y[38] - 12 y[40] - 10 y[41]
   - 8 y[42] - 4 y[43] - 9 y[44] - 7 y[45] - 11 y[46] - 11 y[47] - 6 y[48]
   - 6 y[49] - 14 y[51] - 5 y[53] - 8 y[54] - 8 y[56] - 7 y[57] - 5 y[58]
   - 6 y[59] + 768 u[0] + 382 u[1] + 220 u[2] + 591 u[3] + 778 u[4]
   + 704 u[5] + 251 u[6] + 484 u[7] + 828 u[8] + 882 u[9] + 530 u[10]
   + 753 u[11] + 469 u[12] + 562 u[13] + 108 u[14] + 444 u[15] + 37 u[16]
   + 759 u[17] + 882 u[18] + 19 u[19] + 684 u[20] + 39 u[21] + 795 u[22]
   + 619 u[23] + 564 u[24] + 11 u[25] + 812 u[26] + 938 u[27] + 589 u[28]
   + 615 u[29] + 525 u[30] + 884 u[31] + 533 u[32] + 574 u[33] + 120 u[34]
   + 106 u[35] + 449 u[36] + 131 u[37] + 822 u[38] + 178 u[39] + 469 u[40]
   + 82 u[41] + 928 u[42] + 431 u[43] + 132 u[44] + 356 u[45] + 999 u[46]
   + 112 u[47] + 277 u[48] + 49 u[49] + 920 u[50] + 159 u[51] + 914 u[52]
   + 664 u[53] + 432 u[54] + 432 u[55] + 718 u[56] + 546 u[57] + 415 u[58]
   + 89 u[59] <= 999
 primal_lower4: - 5 y[0] - 14 y[1] - 3 y[2] - 14 y[3] - 9 y[4] - 2 y[5]
   - 6 y[7] - 14 y[8] - 4 y[9] - 9 y[10] - 6 y[11] - 6 y[13] - 15 y[14]
   - 2 y[15] - 3 y[16] - 13 y[17] - 7 y[18] - 15 y[19] - 5 y[20] - 10 y[21]
   - 7 y[22] - 3 y[23] - 12 y[24] - 2 y[25] - 14 y[26] - 10 y[27] - 2 y[28]
   - 6 y[29] - 3 y[30] - y[33] - 12 y[34] - 9 y[35] - 12 y[36] - 5 y[37]
   - 13 y[38] - y[39] - 3 y[40] - 14 y[41] - 9 y[42] - 10 y[43] - 11 y[44]
   - 8 y[45] - 7 y[46] - 5 y[47] - 10 y[49] - 8 y[50] - 4 y[51] - 11 y[52]
   - 5 y[53] - 7 y[54] - 3 y[55] - 4 y[56] - 16 y[57] - 14 y[58] - 14 y[59]
   + 747 u[0] + 773 u[1] + 399 u[2] + 750 u[3] + 397 u[4] + 71 u[5]
   + 830 u[6] + 315 u[7] + 159 u[8] + 817 u[9] + 29 u[10] + 264 u[11]
   + 824 u[12] + 337 u[13] + 871 u[14] + 795 u[15] + 384 u[16] + 758 u[17]
   + 453 u[18] + 242 u[19] + 415 u[20] + 550 u[21] + 590 u[22] + 690 u[23]
   + 431 u[24] + 690 u[25] + 319 u[26] + 737 u[27] + 240 u[28] + 198 u[29]
   + 264 u[30] + 875 u[31] + 256 u[32] + 293 u[33] + 619 u[34] + 633 u[35]
   + 676 u[36] + 850 u[37] + 769 u[38] + 161 u[39] + 760 u[40] + 393 u[41]
   + 651 u[42] + 798 u[43] + 687 u[44] + 803 u[45] + 794 u[46] + 703 u[47]
   + 952 u[48] + 528 u[49] + 27 u[50] + 990 u[51] + 221 u[52] + 927 u[53]
   + 715 u[54] + 319 u[55] + 665 u[56] + 41 u[57] + 626 u[58] + 576 u[59]
   <= 990
 primal_lower5: - 12 y[0] - 5 y[1] - 15 y[2] - 10 y[3] - 14 y[4] - 16 y[5]
   - 9 y[6] - 2 y[7] - 6 y[8] - 3 y[9] - 7 y[10] - 8 y[11] - 10 y[12]
   - 10 y[13] - 2 y[14] - y[15] - 9 y[16] - 4 y[17] - 3 y[18] - 6 y[19]
   - 13 y[20] - 10 y[21] - 15 y[22] - 13 y[23] - y[24] - 11 y[25]
   - 15 y[26] - 14 y[28] - 14 y[29] - 12 y[30] - 11 y[31] - 5 y[32]
   - 15 y[34] - 9 y[35] - 6 y[36] - 6 y[37] - 8 y[38] - 3 y[39] - 10 y[40]
   - 4 y[41] - 3 y[42] - 13 y[43] - 15 y[44] - 10 y[45] - 16 y[46]
   - 6 y[47] - 8 y[48] - 6 y[49] - 8 y[50] - 7 y[51] - 5 y[52] - 10 y[53]
   - 15 y[54] - 4 y[56] - 7 y[57] - 8 y[58] - 16 y[59] + 411 u[0]
   + 341 u[1] + 127 u[2] + 846 u[3] + 949 u[4] + 95 u[5] + 190 u[6]
   + 259 u[7] + 335 u[8] + 913 u[9] + 797 u[10] + 696 u[11] + 928 u[12]
   + 137 u[13] + 503 u[14] + 683 u[15] + 816 u[16] + 526 u[17] + 789 u[18]
   + 938 u[19] + 991 u[20] + 310 u[21] + 598 u[22] + 58 u[23] + 207 u[24]
   + 626 u[25] + 271 u[26] + 385 u[27] + 376 u[28] + 862 u[29] + 416 u[30]
   + 515 u[31] + 376 u[32] + 925 u[33] + 363 u[34] + 777 u[35] + 188 u[36]
   + 442 u[37] + 625 u[38] + 625 u[39] + 248 u[40] + 553 u[41] + 171 u[42]
   + 246 u[43] + 375 u[44] + 387 u[45] + 554 u[46] + 151 u[47] + 432 u[48]
   + 1000 u[49] + 315 u[50] + 38 u[51] + 829 u[52] + 39 u[53] + 27 u[54]
   + 103 u[55] + 857 u[56] + 289 u[57] + 530 u[58] + 80 u[59] <= 1000
 primal_lower6: - 12 y[0] - 15 y[1] - 4 y[2] - 10 y[4] - 13 y[5] - 15 y[6]
   - 10 y[7] - 16 y[8] - 15 y[9] - 4 y[10] - 9 y[12] - 7 y[13] - 4 y[14]
   - 13 y[16] - 3 y[17] - 7 y[18] - 3 y[19] - 12 y[20] - 3 y[21] - 15 y[22]
   - 8 y[24] - y[25] - 3 y[26] - 4 y[27] - 5 y[29] - 12 y[30] - 12 y[31]
   - 2 y[32] - 8 y[33] - 15 y[34] - 12 y[35] - 14 y[36] - 9 y[37] - 4 y[38]
   - 14 y[39] - 6 y[40] - 10 y[41] - 11 y[42] - 5 y[43] - 4 y[44] - 6 y[45]
   - 12 y[46] - 13 y[47] - 10 y[48] - y[49] - 15 y[50] - 9 y[51] - 15 y[52]
   - 4 y[53] - 5 y[54] - 15 y[55] - 4 y[56] - 5 y[58] - 13 y[59] + 458 u[0]
   + 879 u[1] + 875 u[2] + 675 u[3] + 365 u[4] + 361 u[5] + 138 u[6]
   + 217 u[7] + 639 u[8] + 322 u[9] + 232 u[10] + 598 u[11] + 416 u[12]
   + 114 u[13] + 66 u[14] + 32 u[15] + 384 u[16] + 327 u[17] + 201 u[18]
   + 263 u[19] + 974 u[20] + 416 u[21] + 418 u[22] + 504 u[23] + 903 u[24]
   + 692 u[25] + 187 u[26] + 535 u[27] + 191 u[28] + 448 u[29] + 811 u[30]
   + 137 u[31] + 392 u[32] + 927 u[33] + 583 u[34] + 719 u[35] + 260 u[36]
   + 411 u[37] + 61 u[38] + 238 u[39] + 728 u[40] + 170 u[41] + 742 u[42]
   + 60 u[43] + 751 u[44] + 245 u[45] + 365 u[46] + 557 u[47] + 655 u[48]
   + 298 u[49] + 247 u[50] + 227 u[51] + 213 u[52] + 25 u[53] + 878 u[54]
   + 900 u[55] + 880 u[56] + 3 u[57] + 134 u[58] + 597 u[59] <= 974
 primal_lower7: - 13 y[0] - 7 y[1] - 12 y[2] - 15 y[3] - 15 y[5] - 9 y[6]
   - 5 y[8] - 16 y[9] - 4 y[10] - 11 y[11] - 5 y[13] - 5 y[14] - y[15]
   - 14 y[16] - 10 y[17] - 5 y[18] - 5 y[19] - 6 y[20] - 3 y[21] - 8 y[22]
   - 3 y[23] - 2 y[24] - 2 y[25] - 8 y[26] - 9 y[27] - 12 y[28] - 14 y[29]
   - 13 y[30] - 9 y[31] - 4 y[32] - 13 y[33] - 6 y[34] - 9 y[35] - 12 y[36]
   - 9 y[37] - 2 y[38] - 14 y[39] - 3 y[41] - 9 y[42] - 11 y[43] - 12 y[44]
   - y[45] - 6 y[46] - 3 y[47] - 11 y[49] - 11 y[50] - 11 y[51] - 13 y[52]
   - 8 y[53] - 2 y[54] - y[55] - 9 y[56] - 13 y[57] - 15 y[58] - 9 y[59]
   + 93 u[0] + 142 u[1] + 574 u[2] + 850 u[3] + 96 u[4] + 976 u[5]
   + 965 u[6] + 256 u[7] + 426 u[8] + 129 u[9] + 963 u[10] + 389 u[11]
   + 835 u[12] + 969 u[13] + 629 u[14] + 119 u[15] + 467 u[16] + 542 u[17]
   + 276 u[18] + 294 u[19] + 113 u[20] + 391 u[21] + 677 u[22] + 863 u[23]
   + 874 u[24] + 851 u[25] + 982 u[26] + 6 u[27] + 490 u[28] + 975 u[29]
   + 766 u[30] + 136 u[31] + 603 u[32] + 718 u[33] + 162 u[34] + 590 u[35]
   + 95 u[36] + 306 u[37] + 384 u[38] + 741 u[39] + 691 u[40] + 105 u[41]
   + 41 u[42] + 843 u[43] + 602 u[44] + 780 u[45] + 648 u[46] + 740 u[47]
   + 610 u[48] + 801 u[49] + 618 u[50] + 834 u[51] + 792 u[52] + 496 u[53]
   + 193 u[54] + 483 u[55] + 323 u[56] + 210 u[57] + 105 u[58] + 244 u[59]
   <= 982
 primal_lower8: - 9 y[0] - 4 y[1] - 14 y[2] - 8 y[3] - 7 y[4] - 10 y[5]
   - 12 y[6] - 13 y[7] - 6 y[8] - 9 y[9] - 12 y[10] - 10 y[11] - 3 y[12]
   - 2 y[14] - 2 y[15] - 2 y[16] - 13 y[17] - 15 y[18] - 9 y[19] - 4 y[21]
   - 12 y[22] - 6 y[23] - 8 y[24] - 3 y[25] - 5 y[26] - 14 y[27] - 2 y[29]
   - 9 y[30] - 7 y[31] - 12 y[32] - 9 y[33] - 13 y[34] - 7 y[35] - 11 y[36]
   - 9 y[37] - 5 y[38] - 10 y[40] - 6 y[41] - 15 y[43] - 5 y[44] - 15 y[45]
   - 10 y[46] - 4 y[47] - y[48] - 2 y[49] - 8 y[50] - 11 y[51] - y[52]
   - 14 y[53] - 6 y[54] - 11 y[55] - 9 y[56] - 11 y[58] - 11 y[59]
   + 743 u[0] + 912 u[1] + 888 u[2] + 828 u[3] + 714 u[4] + 810 u[5]
   + 71 u[6] + 954 u[7] + 172 u[8] + 331 u[9] + 61 u[10] + 183 u[11]
   + 381 u[12] + 299 u[13] + 551 u[14] + 121 u[15] + 285 u[16] + 816 u[17]
   + 110 u[18] + 280 u[19] + 83 u[20] + 905 u[21] + 375 u[22] + 649 u[23]
   + 364 u[24] + 373 u[25] + 400 u[26] + 496 u[27] + 324 u[28] + 921 u[29]
   + 232 u[30] + 674 u[31] + 901 u[32] + 64 u[33] + 868 u[34] + 272 u[35]
   + 129 u[36] + 4 u[37] + 578 u[38] + 255 u[39] + 885 u[40] + 315 u[41]
   + 43 u[42] + 237 u[43] + 836 u[44] + 750 u[45] + 562 u[46] + 366 u[47]
   + 820 u[48] + 443 u[49] + 124 u[50] + 52 u[51] + 698 u[52] + 882 u[53]
   + 331 u[54] + 29 u[55] + 853 u[56] + 220 u[57] + 371 u[58] + 294 u[59]
   <= 954
 primal_lower9: - 14 y[0] - 7 y[1] - 4 y[2] - 4 y[3] - 10 y[4] - 11 y[5]
   - 7 y[6] - 12 y[7] - 9 y[8] - 7 y[9] - 3 y[10] - 11 y[11] - 2 y[12]
   - 6 y[13] - 12 y[14] - 7 y[15] - 8 y[16] - 10 y[17] - 3 y[18] - 14 y[19]
   - 5 y[20] - 10 y[21] - 7 y[22] - 6 y[23] - 6 y[24] - 12 y[25] - 14 y[26]
   - y[27] - 8 y[28] - 8 y[29] - y[30] - 8 y[31] - 10 y[34] - 10 y[36]
   - 3 y[37] - 14 y[38] - 9 y[39] - 11 y[40] - 13 y[41] - 9 y[42]
   - 14 y[43] - 4 y[44] - 10 y[45] - 12 y[46] - 11 y[47] - 14 y[48]
   - 15 y[50] - 15 y[51] - 2 y[52] - 9 y[53] - y[54] - 15 y[55] - 12 y[56]
   - 13 y[57] - 14 y[58] - 2 y[59] + 227 u[0] + 5 u[1] + 583 u[2] + 78 u[3]
   + 605 u[4] + 783 u[5] + 702 u[6] + 195 u[7] + 239 u[8] + 129 u[9]
   + 597 u[10] + 256 u[11] + 32 u[12] + 633 u[13] + 831 u[14] + 595 u[15]
   + 200 u[16] + 926 u[17] + 5 u[18] + 522 u[19] + 847 u[20] + 998 u[21]
   + 86 u[22] + 338 u[23] + 143 u[24] + 850 u[25] + 679 u[26] + 121 u[27]
   + 624 u[28] + 654 u[29] + 96 u[30] + 419 u[31] + 344 u[32] + 157 u[33]
   + 35 u[34] + 161 u[35] + 148 u[36] + 658 u[37] + 913 u[38] + 305 u[39]
   + 664 u[40] + 385 u[41] + 771 u[42] + 550 u[43] + 135 u[44] + 835 u[45]
   + 658 u[46] + 463 u[47] + 648 u[48] + 728 u[49] + 651 u[50] + 406 u[51]
   + 453 u[52] + 711 u[53] + 443 u[54] + 439 u[55] + 289 u[56] + 553 u[57]
   + 338 u[58] + 480 u[59] <= 998
 mccormick1[0]: - u[0] + z[0] <= 0
 mccormick1[1]: - u[1] + z[1] <= 0
 mccormick1[2]: - u[2] + z[2] <= 0
 mccormick1[3]: - u[3] + z[3] <= 0
 mccormick1[4]: - u[4] + z[4] <= 0
 mccormick1[5]: - u[5] + z[5] <= 0
 mccormick1[6]: - u[6] + z[6] <= 0
 mccormick1[7]: - u[7] + z[7] <= 0
 mccormick1[8]: - u[8] + z[8] <= 0
 mccormick1[9]: - u[9] + z[9] <= 0
 mccormick1[10]: - u[10] + z[10] <= 0
 mccormick1[11]: - u[11] + z[11] <= 0
 mccormick1[12]: - u[12] + z[12] <= 0
 mccormick1[13]: - u[13] + z[13] <= 0
 mccormick1[14]: - u[14] + z[14] <= 0
 mccormick1[15]: - u[15] + z[15] <= 0
 mccormick1[16]: - u[16] + z[16] <= 0
 mccormick1[17]: - u[17] + z[17] <= 0
 mccormick1[18]: - u[18] + z[18] <= 0
 mccormick1[19]: - u[19] + z[19] <= 0
 mccormick1[20]: - u[20] + z[20] <= 0
 mccormick1[21]: - u[21] + z[21] <= 0
 mccormick1[22]: - u[22] + z[22] <= 0
 mccormick1[23]: - u[23] + z[23] <= 0
 mccormick1[24]: - u[24] + z[24] <= 0
 mccormick1[25]: - u[25] + z[25] <= 0
 mccormick1[26]: - u[26] + z[26] <= 0
 mccormick1[27]: - u[27] + z[27] <= 0
 mccormick1[28]: - u[28] + z[28] <= 0
 mccormick1[29]: - u[29] + z[29] <= 0
 mccormick1[30]: - u[30] + z[30] <= 0
 mccormick1[31]: - u[31] + z[31] <= 0
 mccormick1[32]: - u[32] + z[32] <= 0
 mccormick1[33]: - u[33] + z[33] <= 0
 mccormick1[34]: - u[34] + z[34] <= 0
 mccormick1[35]: - u[35] + z[35] <= 0
 mccormick1[36]: - u[36] + z[36] <= 0
 mccormick1[37]: - u[37] + z[37] <= 0
 mccormick1[38]: - u[38] + z[38] <= 0
 mccormick1[39]: - u[39] + z[39] <= 0
 mccormick1[40]: - u[40] + z[40] <= 0
 mccormick1[41]: - u[41] + z[41] <= 0
 mccormick1[42]: - u[42] + z[42] <= 0
 mccormick1[43]: - u[43] + z[43] <= 0
 mccormick1[44]: - u[44] + z[44] <= 0
 mccormick1[45]: - u[45] + z[45] <= 0
 mccormick1[46]: - u[46] + z[46] <= 0
 mccormick1[47]: - u[47] + z[47] <= 0
 mccormick1[48]: - u[48] + z[48] <= 0
 mccormick1[49]: - u[49] + z[49] <= 0
 mccormick1[50]: - u[50] + z[50] <= 0
 mccormick1[51]: - u[51] + z[51] <= 0
 mccormick1[52]: - u[52] + z[52] <= 0
 mccormick1[53]: - u[53] + z[53] <= 0
 mccormick1[54]: - u[54] + z[54] <= 0
 mccormick1[55]: - u[55] + z[55] <= 0
 mccormick1[56]: - u[56] + z[56] <= 0
 mccormick1[57]: - u[57] + z[57] <= 0
 mccormick1[58]: - u[58] + z[58] <= 0
 mccormick1[59]: - u[59] + z[59] <= 0
 mccormick2[0]: - y[0] + z[0] <= 0
 mccormick2[1]: - y[1] + z[1] <= 0
 mccormick2[2]: - y[2] + z[2] <= 0
 mccormick2[3]: - y[3] + z[3] <= 0
 mccormick2[4]: - y[4] + z[4] <= 0
 mccormick2[5]: - y[5] + z[5] <= 0
 mccormick2[6]: - y[6] + z[6] <= 0
 mccormick2[7]: - y[7] + z[7] <= 0
 mccormick2[8]: - y[8] + z[8] <= 0
 mccormick2[9]: - y[9] + z[9] <= 0
 mccormick2[10]: - y[10] + z[10] <= 0
 mccormick2[11]: - y[11] + z[11] <= 0
 mccormick2[12]: - y[12] + z[12] <= 0
 mccormick2[13]: - y[13] + z[13] <= 0
 mccormick2[14]: - y[14] + z[14] <= 0
 mccormick2[15]: - y[15] + z[15] <= 0
 mccormick2[16]: - y[16] + z[16] <= 0
 mccormick2[17]: - y[17] + z[17] <= 0
 mccormick2[18]: - y[18] + z[18] <= 0
 mccormick2[19]: - y[19] + z[19] <= 0
 mccormick2[20]: - y[20] + z[20] <= 0
 mccormick2[21]: - y[21] + z[21] <= 0
 mccormick2[22]: - y[22] + z[22] <= 0
 mccormick2[23]: - y[23] + z[23] <= 0
 mccormick2[24]: - y[24] + z[24] <= 0
 mccormick2[25]: - y[25] + z[25] <= 0
 mccormick2[26]: - y[26] + z[26] <= 0
 mccormick2[27]: - y[27] + z[27] <= 0
 mccormick2[28]: - y[28] + z[28] <= 0
 mccormick2[29]: - y[29] + z[29] <= 0
 mccormick2[30]: - y[30] + z[30] <= 0
 mccormick2[31]: - y[31] + z[31] <= 0
 mccormick2[32]: - y[32] + z[32] <= 0
 mccormick2[33]: - y[33] + z[33] <= 0
 mccormick2[34]: - y[34] + z[34] <= 0
 mccormick2[35]: - y[35] + z[35] <= 0
 mccormick2[36]: - y[36] + z[36] <= 0
 mccormick2[37]: - y[37] + z[37] <= 0
 mccormick2[38]: - y[38] + z[38] <= 0
 mccormick2[39]: - y[39] + z[39] <= 0
 mccormick2[40]: - y[40] + z[40] <= 0
 mccormick2[41]: - y[41] + z[41] <= 0
 mccormick2[42]: - y[42] + z[42] <= 0
 mccormick2[43]: - y[43] + z[43] <= 0
 mccormick2[44]: - y[44] + z[44] <= 0
 mccormick2[45]: - y[45] + z[45] <= 0
 mccormick2[46]: - y[46] + z[46] <= 0
 mccormick2[47]: - y[47] + z[47] <= 0
 mccormick2[48]: - y[48] + z[48] <= 0
 mccormick2[49]: - y[49] + z[49] <= 0
 mccormick2[50]: - y[50] + z[50] <= 0
 mccormick2[51]: - y[51] + z[51] <= 0
 mccormick2[52]: - y[52] + z[52] <= 0
 mccormick2[53]: - y[53] + z[53] <= 0
 mccormick2[54]: - y[54] + z[54] <= 0
 mccormick2[55]: - y[55] + z[55] <= 0
 mccormick2[56]: - y[56] + z[56] <= 0
 mccormick2[57]: - y[57] + z[57] <= 0
 mccormick2[58]: - y[58] + z[58] <= 0
 mccormick2[59]: - y[59] + z[59] <= 0
 mccormick3[0]: y[0] + u[0] - z[0] <= 1
 mccormick3[1]: y[1] + u[1] - z[1] <= 1
 mccormick3[2]: y[2] + u[2] - z[2] <= 1
 mccormick3[3]: y[3] + u[3] - z[3] <= 1
 mccormick3[4]: y[4] + u[4] - z[4] <= 1
 mccormick3[5]: y[5] + u[5] - z[5] <= 1
 mccormick3[6]: y[6] + u[6] - z[6] <= 1
 mccormick3[7]: y[7] + u[7] - z[7] <= 1
 mccormick3[8]: y[8] + u[8] - z[8] <= 1
 mccormick3[9]: y[9] + u[9] - z[9] <= 1
 mccormick3[10]: y[10] + u[10] - z[10] <= 1
 mccormick3[11]: y[11] + u[11] - z[11] <= 1
 mccormick3[12]: y[12] + u[12] - z[12] <= 1
 mccormick3[13]: y[13] + u[13] - z[13] <= 1
 mccormick3[14]: y[14] + u[14] - z[14] <= 1
 mccormick3[15]: y[15] + u[15] - z[15] <= 1
 mccormick3[16]: y[16] + u[16] - z[16] <= 1
 mccormick3[17]: y[17] + u[17] - z[17] <= 1
 mccormick3[18]: y[18] + u[18] - z[18] <= 1
 mccormick3[19]: y[19] + u[19] - z[19] <= 1
 mccormick3[20]: y[20] + u[20] - z[20] <= 1
 mccormick3[21]: y[21] + u[21] - z[21] <= 1
 mccormick3[22]: y[22] + u[22] - z[22] <= 1
 mccormick3[23]: y[23] + u[23] - z[23] <= 1
 mccormick3[24]: y[24] + u[24] - z[24] <= 1
 mccormick3[25]: y[25] + u[25] - z[25] <= 1
 mccormick3[26]: y[26] + u[26] - z[26] <= 1
 mccormick3[27]: y[27] + u[27] - z[27] <= 1
 mccormick3[28]: y[28] + u[28] - z[28] <= 1
 mccormick3[29]: y[29] + u[29] - z[29] <= 1
 mccormick3[30]: y[30] + u[30] - z[30] <= 1
 mccormick3[31]: y[31] + u[31] - z[31] <= 1
 mccormick3[32]: y[32] + u[32] - z[32] <= 1
 mccormick3[33]: y[33] + u[33] - z[33] <= 1
 mccormick3[34]: y[34] + u[34] - z[34] <= 1
 mccormick3[35]: y[35] + u[35] - z[35] <= 1
 mccormick3[36]: y[36] + u[36] - z[36] <= 1
 mccormick3[37]: y[37] + u[37] - z[37] <= 1
 mccormick3[38]: y[38] + u[38] - z[38] <= 1
 mccormick3[39]: y[39] + u[39] - z[39] <= 1
 mccormick3[40]: y[40] + u[40] - z[40] <= 1
 mccormick3[41]: y[41] + u[41] - z[41] <= 1
 mccormick3[42]: y[42] + u[42] - z[42] <= 1
 mccormick3[43]: y[43] + u[43] - z[43] <= 1
 mccormick3[44]: y[44] + u[44] - z[44] <= 1
 mccormick3[45]: y[45] + u[45] - z[45] <= 1
 mccormick3[46]: y[46] + u[46] - z[46] <= 1
 mccormick3[47]: y[47] + u[47] - z[47] <= 1
 mccormick3[48]: y[48] + u[48] - z[48] <= 1
 mccormick3[49]: y[49] + u[49] - z[49] <= 1
 mccormick3[50]: y[50] + u[50] - z[50] <= 1
 mccormick3[51]: y[51] + u[51] - z[51] <= 1
 mccormick3[52]: y[52] + u[52] - z[52] <= 1
 mccormick3[53]: y[53] + u[53] - z[53] <= 1
 mccormick3[54]: y[54] + u[54] - z[54] <= 1
 mccormick3[55]: y[55] + u[55] - z[55] <= 1
 mccormick3[56]: y[56] + u[56] - z[56] <= 1
 mccormick3[57]: y[57] + u[57] - z[57] <= 1
 mccormick3[58]: y[58] + u[58] - z[58] <= 1
 mccormick3[59]: y[59] + u[59] - z[59] <= 1
Bounds
Binaries
 y[0] y[1] y[2] y[3] y[4] y[5] y[6] y[7] y[8] y[9] y[10] y[11] y[12] y[13]
 y[14] y[15] y[16] y[17] y[18] y[19] y[20] y[21] y[22] y[23] y[24] y[25]
 y[26] y[27] y[28] y[29] y[30] y[31] y[32] y[33] y[34] y[35] y[36] y[37]
 y[38] y[39] y[40] y[41] y[42] y[43] y[44] y[45] y[46] y[47] y[48] y[49]
 y[50] y[51] y[52] y[53] y[54] y[55] y[56] y[57] y[58] y[59] u[0] u[1] u[2]
 u[3] u[4] u[5] u[6] u[7] u[8] u[9] u[10] u[11] u[12] u[13] u[14] u[15]
 u[16] u[17] u[18] u[19] u[20] u[21] u[22] u[23] u[24] u[25] u[26] u[27]
 u[28] u[29] u[30] u[31] u[32] u[33] u[34] u[35] u[36] u[37] u[38] u[39]
 u[40] u[41] u[42] u[43] u[44] u[45] u[46] u[47] u[48] u[49] u[50] u[51]
 u[52] u[53] u[54] u[55] u[56] u[57] u[58] u[59] z[0] z[1] z[2] z[3] z[4]
 z[5] z[6] z[7] z[8] z[9] z[10] z[11] z[12] z[13] z[14] z[15] z[16] z[17]
 z[18] z[19] z[20] z[21] z[22] z[23] z[24] z[25] z[26] z[27] z[28] z[29]
 z[30] z[31] z[32] z[33] z[34] z[35] z[36] z[37] z[38] z[39] z[40] z[41]
 z[42] z[43] z[44] z[45] z[46] z[47] z[48] z[49] z[50] z[51] z[52] z[53]
 z[54] z[55] z[56] z[57] z[58] z[59]
End
